16 40
29  6
17 37
10 39
13 33
20 46
9  32
31 28
35 28
30 44
40 16
4  18
47 48
32 36
3  49
0  46
6  13
0  35
35 17
19 17
11 10
27  2
42 43
27 10
39  7
34 10
17  5
10 27
7  23
12 28
2  31
33 46
26 41
19 28
19  5
11 17
1  38
45 43
38 36
0  26
28 12
16  7
22  9
11 38
25 44
17  7
18  6
2   2
37 45
5  23
37 14
2  47
42 24
5  45
2  14
40 49
27 28
33 38
18 11
48 45
42 22
42 14
19 28
39 19
47 43
2   6
37 16
12 14
26 13
46 36
36 45
23  5
37 46
20 32
0  32
15  2
25 47
24 11
2  24
9  27
9  32
7  38
19 16
23 43
3  20
49 40
42  5
46 28
29 20
23 25
13 14
18 13
12 39
33  2
33 29
4  32
21 20
15  1
24  9
49 46
